\* AssignmentProblem *\
Minimize
OBJ: 16600.3621521 A320_000_KATL_KBOS + 30647.5939244 A320_000_KATL_KLAX
 + 18004.6350222 A320_000_KATL_KMSP + 50767.068938 A320_000_KATL_PANC
 + 16703.42886 A320_000_KBOS_KATL + 37327.3635943 A320_000_KIAD_KSFO
 + 16270.3787395 A320_000_KIAH_KORD + 37677.4565315 A320_000_KJFK_KSEA
 + 53761.0319719 A320_000_KJFK_LFPG + 30835.0051403 A320_000_KLAX_KATL
 + 16490.1740033 A320_000_KMSP_KATL + 16515.1719515 A320_000_KORD_KIAH
 + 37429.5690894 A320_000_KSEA_KJFK + 37148.9577242 A320_000_KSFO_KIAD
 + 50704.2139195 A320_000_PANC_KATL + 16600.3621521 A320_003_KATL_KBOS
 + 30647.5939244 A320_003_KATL_KLAX + 18004.6350222 A320_003_KATL_KMSP
 + 50767.068938 A320_003_KATL_PANC + 16703.42886 A320_003_KBOS_KATL
 + 37327.3635943 A320_003_KIAD_KSFO + 16270.3787395 A320_003_KIAH_KORD
 + 37677.4565315 A320_003_KJFK_KSEA + 53761.0319719 A320_003_KJFK_LFPG
 + 30835.0051403 A320_003_KLAX_KATL + 16490.1740033 A320_003_KMSP_KATL
 + 16515.1719515 A320_003_KORD_KIAH + 37429.5690894 A320_003_KSEA_KJFK
 + 37148.9577242 A320_003_KSFO_KIAD + 50704.2139195 A320_003_PANC_KATL
 + 16600.3621521 A320_006_KATL_KBOS + 30647.5939244 A320_006_KATL_KLAX
 + 18004.6350222 A320_006_KATL_KMSP + 50767.068938 A320_006_KATL_PANC
 + 16703.42886 A320_006_KBOS_KATL + 37327.3635943 A320_006_KIAD_KSFO
 + 16270.3787395 A320_006_KIAH_KORD + 37677.4565315 A320_006_KJFK_KSEA
 + 53761.0319719 A320_006_KJFK_LFPG + 30835.0051403 A320_006_KLAX_KATL
 + 16490.1740033 A320_006_KMSP_KATL + 16515.1719515 A320_006_KORD_KIAH
 + 37429.5690894 A320_006_KSEA_KJFK + 37148.9577242 A320_006_KSFO_KIAD
 + 50704.2139195 A320_006_PANC_KATL + 16600.3621521 A320_009_KATL_KBOS
 + 30647.5939244 A320_009_KATL_KLAX + 18004.6350222 A320_009_KATL_KMSP
 + 50767.068938 A320_009_KATL_PANC + 16703.42886 A320_009_KBOS_KATL
 + 37327.3635943 A320_009_KIAD_KSFO + 16270.3787395 A320_009_KIAH_KORD
 + 37677.4565315 A320_009_KJFK_KSEA + 53761.0319719 A320_009_KJFK_LFPG
 + 30835.0051403 A320_009_KLAX_KATL + 16490.1740033 A320_009_KMSP_KATL
 + 16515.1719515 A320_009_KORD_KIAH + 37429.5690894 A320_009_KSEA_KJFK
 + 37148.9577242 A320_009_KSFO_KIAD + 50704.2139195 A320_009_PANC_KATL
 + 16600.3621521 A320_012_KATL_KBOS + 30647.5939244 A320_012_KATL_KLAX
 + 18004.6350222 A320_012_KATL_KMSP + 50767.068938 A320_012_KATL_PANC
 + 16703.42886 A320_012_KBOS_KATL + 37327.3635943 A320_012_KIAD_KSFO
 + 16270.3787395 A320_012_KIAH_KORD + 37677.4565315 A320_012_KJFK_KSEA
 + 53761.0319719 A320_012_KJFK_LFPG + 30835.0051403 A320_012_KLAX_KATL
 + 16490.1740033 A320_012_KMSP_KATL + 16515.1719515 A320_012_KORD_KIAH
 + 37429.5690894 A320_012_KSEA_KJFK + 37148.9577242 A320_012_KSFO_KIAD
 + 50704.2139195 A320_012_PANC_KATL + 26644.2833283 A332_001_KATL_KBOS
 + 47440.493803 A332_001_KATL_KLAX + 28722.4465195 A332_001_KATL_KMSP
 + 77829.5875363 A332_001_KATL_PANC + 26914.0417981 A332_001_KBOS_KATL
 + 57439.6443593 A332_001_KIAD_KSFO + 26144.8032238 A332_001_KIAH_KORD
 + 57976.3638348 A332_001_KJFK_KSEA + 82366.5522761 A332_001_KJFK_LFPG
 + 47725.4326852 A332_001_KLAX_KATL + 26566.6649749 A332_001_KMSP_KATL
 + 26566.9588891 A332_001_KORD_KIAH + 57524.0738094 A332_001_KSEA_KJFK
 + 57122.9190802 A332_001_KSFO_KIAD + 77638.5099033 A332_001_PANC_KATL
 + 26644.2833283 A332_004_KATL_KBOS + 47440.493803 A332_004_KATL_KLAX
 + 28722.4465195 A332_004_KATL_KMSP + 77829.5875363 A332_004_KATL_PANC
 + 26914.0417981 A332_004_KBOS_KATL + 57439.6443593 A332_004_KIAD_KSFO
 + 26144.8032238 A332_004_KIAH_KORD + 57976.3638348 A332_004_KJFK_KSEA
 + 82366.5522761 A332_004_KJFK_LFPG + 47725.4326852 A332_004_KLAX_KATL
 + 26566.6649749 A332_004_KMSP_KATL + 26566.9588891 A332_004_KORD_KIAH
 + 57524.0738094 A332_004_KSEA_KJFK + 57122.9190802 A332_004_KSFO_KIAD
 + 77638.5099033 A332_004_PANC_KATL + 26644.2833283 A332_007_KATL_KBOS
 + 47440.493803 A332_007_KATL_KLAX + 28722.4465195 A332_007_KATL_KMSP
 + 77829.5875363 A332_007_KATL_PANC + 26914.0417981 A332_007_KBOS_KATL
 + 57439.6443593 A332_007_KIAD_KSFO + 26144.8032238 A332_007_KIAH_KORD
 + 57976.3638348 A332_007_KJFK_KSEA + 82366.5522761 A332_007_KJFK_LFPG
 + 47725.4326852 A332_007_KLAX_KATL + 26566.6649749 A332_007_KMSP_KATL
 + 26566.9588891 A332_007_KORD_KIAH + 57524.0738094 A332_007_KSEA_KJFK
 + 57122.9190802 A332_007_KSFO_KIAD + 77638.5099033 A332_007_PANC_KATL
 + 26644.2833283 A332_010_KATL_KBOS + 47440.493803 A332_010_KATL_KLAX
 + 28722.4465195 A332_010_KATL_KMSP + 77829.5875363 A332_010_KATL_PANC
 + 26914.0417981 A332_010_KBOS_KATL + 57439.6443593 A332_010_KIAD_KSFO
 + 26144.8032238 A332_010_KIAH_KORD + 57976.3638348 A332_010_KJFK_KSEA
 + 82366.5522761 A332_010_KJFK_LFPG + 47725.4326852 A332_010_KLAX_KATL
 + 26566.6649749 A332_010_KMSP_KATL + 26566.9588891 A332_010_KORD_KIAH
 + 57524.0738094 A332_010_KSEA_KJFK + 57122.9190802 A332_010_KSFO_KIAD
 + 77638.5099033 A332_010_PANC_KATL + 26644.2833283 A332_013_KATL_KBOS
 + 47440.493803 A332_013_KATL_KLAX + 28722.4465195 A332_013_KATL_KMSP
 + 77829.5875363 A332_013_KATL_PANC + 26914.0417981 A332_013_KBOS_KATL
 + 57439.6443593 A332_013_KIAD_KSFO + 26144.8032238 A332_013_KIAH_KORD
 + 57976.3638348 A332_013_KJFK_KSEA + 82366.5522761 A332_013_KJFK_LFPG
 + 47725.4326852 A332_013_KLAX_KATL + 26566.6649749 A332_013_KMSP_KATL
 + 26566.9588891 A332_013_KORD_KIAH + 57524.0738094 A332_013_KSEA_KJFK
 + 57122.9190802 A332_013_KSFO_KIAD + 77638.5099033 A332_013_PANC_KATL
 + 17166.1755965 B738_002_KATL_KBOS + 22882.3984684 B738_002_KATL_KLAX
 + 18655.6852482 B738_002_KATL_KMSP + 23634.5568755 B738_002_KATL_PANC
 + 17280.5726482 B738_002_KBOS_KATL + 23628.3946238 B738_002_KIAD_KSFO
 + 16804.5621347 B738_002_KIAH_KORD + 24329.7335578 B738_002_KJFK_KSEA
 + 24506.5288943 B738_002_KJFK_LFPG + 23119.3819013 B738_002_KLAX_KATL
 + 17050.8986984 B738_002_KMSP_KATL + 17035.7973059 B738_002_KORD_KIAH
 + 23885.2671628 B738_002_KSEA_KJFK + 23838.4058678 B738_002_KSFO_KIAD
 + 25535.3517864 B738_002_PANC_KATL + 17166.1755965 B738_005_KATL_KBOS
 + 22882.3984684 B738_005_KATL_KLAX + 18655.6852482 B738_005_KATL_KMSP
 + 23634.5568755 B738_005_KATL_PANC + 17280.5726482 B738_005_KBOS_KATL
 + 23628.3946238 B738_005_KIAD_KSFO + 16804.5621347 B738_005_KIAH_KORD
 + 24329.7335578 B738_005_KJFK_KSEA + 24506.5288943 B738_005_KJFK_LFPG
 + 23119.3819013 B738_005_KLAX_KATL + 17050.8986984 B738_005_KMSP_KATL
 + 17035.7973059 B738_005_KORD_KIAH + 23885.2671628 B738_005_KSEA_KJFK
 + 23838.4058678 B738_005_KSFO_KIAD + 25535.3517864 B738_005_PANC_KATL
 + 17166.1755965 B738_008_KATL_KBOS + 22882.3984684 B738_008_KATL_KLAX
 + 18655.6852482 B738_008_KATL_KMSP + 23634.5568755 B738_008_KATL_PANC
 + 17280.5726482 B738_008_KBOS_KATL + 23628.3946238 B738_008_KIAD_KSFO
 + 16804.5621347 B738_008_KIAH_KORD + 24329.7335578 B738_008_KJFK_KSEA
 + 24506.5288943 B738_008_KJFK_LFPG + 23119.3819013 B738_008_KLAX_KATL
 + 17050.8986984 B738_008_KMSP_KATL + 17035.7973059 B738_008_KORD_KIAH
 + 23885.2671628 B738_008_KSEA_KJFK + 23838.4058678 B738_008_KSFO_KIAD
 + 25535.3517864 B738_008_PANC_KATL + 17166.1755965 B738_011_KATL_KBOS
 + 22882.3984684 B738_011_KATL_KLAX + 18655.6852482 B738_011_KATL_KMSP
 + 23634.5568755 B738_011_KATL_PANC + 17280.5726482 B738_011_KBOS_KATL
 + 23628.3946238 B738_011_KIAD_KSFO + 16804.5621347 B738_011_KIAH_KORD
 + 24329.7335578 B738_011_KJFK_KSEA + 24506.5288943 B738_011_KJFK_LFPG
 + 23119.3819013 B738_011_KLAX_KATL + 17050.8986984 B738_011_KMSP_KATL
 + 17035.7973059 B738_011_KORD_KIAH + 23885.2671628 B738_011_KSEA_KJFK
 + 23838.4058678 B738_011_KSFO_KIAD + 25535.3517864 B738_011_PANC_KATL
 + 17166.1755965 B738_014_KATL_KBOS + 22882.3984684 B738_014_KATL_KLAX
 + 18655.6852482 B738_014_KATL_KMSP + 23634.5568755 B738_014_KATL_PANC
 + 17280.5726482 B738_014_KBOS_KATL + 23628.3946238 B738_014_KIAD_KSFO
 + 16804.5621347 B738_014_KIAH_KORD + 24329.7335578 B738_014_KJFK_KSEA
 + 24506.5288943 B738_014_KJFK_LFPG + 23119.3819013 B738_014_KLAX_KATL
 + 17050.8986984 B738_014_KMSP_KATL + 17035.7973059 B738_014_KORD_KIAH
 + 23885.2671628 B738_014_KSEA_KJFK + 23838.4058678 B738_014_KSFO_KIAD
 + 25535.3517864 B738_014_PANC_KATL
Subject To
_C1: A320_000_KATL_KBOS + A320_000_KATL_KLAX + A320_000_KATL_KMSP
 + A320_000_KATL_PANC + A320_000_KBOS_KATL + A320_000_KIAD_KSFO
 + A320_000_KIAH_KORD + A320_000_KJFK_KSEA + A320_000_KJFK_LFPG
 + A320_000_KLAX_KATL + A320_000_KMSP_KATL + A320_000_KORD_KIAH
 + A320_000_KSEA_KJFK + A320_000_KSFO_KIAD + A320_000_PANC_KATL <= 1
_C10: A320_009_KATL_KBOS + A320_009_KATL_KLAX + A320_009_KATL_KMSP
 + A320_009_KATL_PANC + A320_009_KBOS_KATL + A320_009_KIAD_KSFO
 + A320_009_KIAH_KORD + A320_009_KJFK_KSEA + A320_009_KJFK_LFPG
 + A320_009_KLAX_KATL + A320_009_KMSP_KATL + A320_009_KORD_KIAH
 + A320_009_KSEA_KJFK + A320_009_KSFO_KIAD + A320_009_PANC_KATL <= 1
_C11: A332_010_KATL_KBOS + A332_010_KATL_KLAX + A332_010_KATL_KMSP
 + A332_010_KATL_PANC + A332_010_KBOS_KATL + A332_010_KIAD_KSFO
 + A332_010_KIAH_KORD + A332_010_KJFK_KSEA + A332_010_KJFK_LFPG
 + A332_010_KLAX_KATL + A332_010_KMSP_KATL + A332_010_KORD_KIAH
 + A332_010_KSEA_KJFK + A332_010_KSFO_KIAD + A332_010_PANC_KATL <= 1
_C12: B738_011_KATL_KBOS + B738_011_KATL_KLAX + B738_011_KATL_KMSP
 + B738_011_KATL_PANC + B738_011_KBOS_KATL + B738_011_KIAD_KSFO
 + B738_011_KIAH_KORD + B738_011_KJFK_KSEA + B738_011_KJFK_LFPG
 + B738_011_KLAX_KATL + B738_011_KMSP_KATL + B738_011_KORD_KIAH
 + B738_011_KSEA_KJFK + B738_011_KSFO_KIAD + B738_011_PANC_KATL <= 1
_C13: A320_012_KATL_KBOS + A320_012_KATL_KLAX + A320_012_KATL_KMSP
 + A320_012_KATL_PANC + A320_012_KBOS_KATL + A320_012_KIAD_KSFO
 + A320_012_KIAH_KORD + A320_012_KJFK_KSEA + A320_012_KJFK_LFPG
 + A320_012_KLAX_KATL + A320_012_KMSP_KATL + A320_012_KORD_KIAH
 + A320_012_KSEA_KJFK + A320_012_KSFO_KIAD + A320_012_PANC_KATL <= 1
_C14: A332_013_KATL_KBOS + A332_013_KATL_KLAX + A332_013_KATL_KMSP
 + A332_013_KATL_PANC + A332_013_KBOS_KATL + A332_013_KIAD_KSFO
 + A332_013_KIAH_KORD + A332_013_KJFK_KSEA + A332_013_KJFK_LFPG
 + A332_013_KLAX_KATL + A332_013_KMSP_KATL + A332_013_KORD_KIAH
 + A332_013_KSEA_KJFK + A332_013_KSFO_KIAD + A332_013_PANC_KATL <= 1
_C15: B738_014_KATL_KBOS + B738_014_KATL_KLAX + B738_014_KATL_KMSP
 + B738_014_KATL_PANC + B738_014_KBOS_KATL + B738_014_KIAD_KSFO
 + B738_014_KIAH_KORD + B738_014_KJFK_KSEA + B738_014_KJFK_LFPG
 + B738_014_KLAX_KATL + B738_014_KMSP_KATL + B738_014_KORD_KIAH
 + B738_014_KSEA_KJFK + B738_014_KSFO_KIAD + B738_014_PANC_KATL <= 1
_C16: A320_000_KATL_KLAX + A320_003_KATL_KLAX + A320_006_KATL_KLAX
 + A320_009_KATL_KLAX + A320_012_KATL_KLAX + A332_001_KATL_KLAX
 + A332_004_KATL_KLAX + A332_007_KATL_KLAX + A332_010_KATL_KLAX
 + A332_013_KATL_KLAX + B738_002_KATL_KLAX + B738_005_KATL_KLAX
 + B738_008_KATL_KLAX + B738_011_KATL_KLAX + B738_014_KATL_KLAX = 1
_C17: A320_000_KJFK_KSEA + A320_003_KJFK_KSEA + A320_006_KJFK_KSEA
 + A320_009_KJFK_KSEA + A320_012_KJFK_KSEA + A332_001_KJFK_KSEA
 + A332_004_KJFK_KSEA + A332_007_KJFK_KSEA + A332_010_KJFK_KSEA
 + A332_013_KJFK_KSEA + B738_002_KJFK_KSEA + B738_005_KJFK_KSEA
 + B738_008_KJFK_KSEA + B738_011_KJFK_KSEA + B738_014_KJFK_KSEA = 1
_C18: A320_000_KATL_KMSP + A320_003_KATL_KMSP + A320_006_KATL_KMSP
 + A320_009_KATL_KMSP + A320_012_KATL_KMSP + A332_001_KATL_KMSP
 + A332_004_KATL_KMSP + A332_007_KATL_KMSP + A332_010_KATL_KMSP
 + A332_013_KATL_KMSP + B738_002_KATL_KMSP + B738_005_KATL_KMSP
 + B738_008_KATL_KMSP + B738_011_KATL_KMSP + B738_014_KATL_KMSP = 1
_C19: A320_000_KBOS_KATL + A320_003_KBOS_KATL + A320_006_KBOS_KATL
 + A320_009_KBOS_KATL + A320_012_KBOS_KATL + A332_001_KBOS_KATL
 + A332_004_KBOS_KATL + A332_007_KBOS_KATL + A332_010_KBOS_KATL
 + A332_013_KBOS_KATL + B738_002_KBOS_KATL + B738_005_KBOS_KATL
 + B738_008_KBOS_KATL + B738_011_KBOS_KATL + B738_014_KBOS_KATL = 1
_C2: A332_001_KATL_KBOS + A332_001_KATL_KLAX + A332_001_KATL_KMSP
 + A332_001_KATL_PANC + A332_001_KBOS_KATL + A332_001_KIAD_KSFO
 + A332_001_KIAH_KORD + A332_001_KJFK_KSEA + A332_001_KJFK_LFPG
 + A332_001_KLAX_KATL + A332_001_KMSP_KATL + A332_001_KORD_KIAH
 + A332_001_KSEA_KJFK + A332_001_KSFO_KIAD + A332_001_PANC_KATL <= 1
_C20: A320_000_KIAH_KORD + A320_003_KIAH_KORD + A320_006_KIAH_KORD
 + A320_009_KIAH_KORD + A320_012_KIAH_KORD + A332_001_KIAH_KORD
 + A332_004_KIAH_KORD + A332_007_KIAH_KORD + A332_010_KIAH_KORD
 + A332_013_KIAH_KORD + B738_002_KIAH_KORD + B738_005_KIAH_KORD
 + B738_008_KIAH_KORD + B738_011_KIAH_KORD + B738_014_KIAH_KORD = 1
_C21: A320_000_KIAD_KSFO + A320_003_KIAD_KSFO + A320_006_KIAD_KSFO
 + A320_009_KIAD_KSFO + A320_012_KIAD_KSFO + A332_001_KIAD_KSFO
 + A332_004_KIAD_KSFO + A332_007_KIAD_KSFO + A332_010_KIAD_KSFO
 + A332_013_KIAD_KSFO + B738_002_KIAD_KSFO + B738_005_KIAD_KSFO
 + B738_008_KIAD_KSFO + B738_011_KIAD_KSFO + B738_014_KIAD_KSFO = 1
_C22: A320_000_PANC_KATL + A320_003_PANC_KATL + A320_006_PANC_KATL
 + A320_009_PANC_KATL + A320_012_PANC_KATL + A332_001_PANC_KATL
 + A332_004_PANC_KATL + A332_007_PANC_KATL + A332_010_PANC_KATL
 + A332_013_PANC_KATL + B738_002_PANC_KATL + B738_005_PANC_KATL
 + B738_008_PANC_KATL + B738_011_PANC_KATL + B738_014_PANC_KATL = 1
_C23: A320_000_KLAX_KATL + A320_003_KLAX_KATL + A320_006_KLAX_KATL
 + A320_009_KLAX_KATL + A320_012_KLAX_KATL + A332_001_KLAX_KATL
 + A332_004_KLAX_KATL + A332_007_KLAX_KATL + A332_010_KLAX_KATL
 + A332_013_KLAX_KATL + B738_002_KLAX_KATL + B738_005_KLAX_KATL
 + B738_008_KLAX_KATL + B738_011_KLAX_KATL + B738_014_KLAX_KATL = 1
_C24: A320_000_KSEA_KJFK + A320_003_KSEA_KJFK + A320_006_KSEA_KJFK
 + A320_009_KSEA_KJFK + A320_012_KSEA_KJFK + A332_001_KSEA_KJFK
 + A332_004_KSEA_KJFK + A332_007_KSEA_KJFK + A332_010_KSEA_KJFK
 + A332_013_KSEA_KJFK + B738_002_KSEA_KJFK + B738_005_KSEA_KJFK
 + B738_008_KSEA_KJFK + B738_011_KSEA_KJFK + B738_014_KSEA_KJFK = 1
_C25: A320_000_KMSP_KATL + A320_003_KMSP_KATL + A320_006_KMSP_KATL
 + A320_009_KMSP_KATL + A320_012_KMSP_KATL + A332_001_KMSP_KATL
 + A332_004_KMSP_KATL + A332_007_KMSP_KATL + A332_010_KMSP_KATL
 + A332_013_KMSP_KATL + B738_002_KMSP_KATL + B738_005_KMSP_KATL
 + B738_008_KMSP_KATL + B738_011_KMSP_KATL + B738_014_KMSP_KATL = 1
_C26: A320_000_KATL_KBOS + A320_003_KATL_KBOS + A320_006_KATL_KBOS
 + A320_009_KATL_KBOS + A320_012_KATL_KBOS + A332_001_KATL_KBOS
 + A332_004_KATL_KBOS + A332_007_KATL_KBOS + A332_010_KATL_KBOS
 + A332_013_KATL_KBOS + B738_002_KATL_KBOS + B738_005_KATL_KBOS
 + B738_008_KATL_KBOS + B738_011_KATL_KBOS + B738_014_KATL_KBOS = 1
_C27: A320_000_KORD_KIAH + A320_003_KORD_KIAH + A320_006_KORD_KIAH
 + A320_009_KORD_KIAH + A320_012_KORD_KIAH + A332_001_KORD_KIAH
 + A332_004_KORD_KIAH + A332_007_KORD_KIAH + A332_010_KORD_KIAH
 + A332_013_KORD_KIAH + B738_002_KORD_KIAH + B738_005_KORD_KIAH
 + B738_008_KORD_KIAH + B738_011_KORD_KIAH + B738_014_KORD_KIAH = 1
_C28: A320_000_KSFO_KIAD + A320_003_KSFO_KIAD + A320_006_KSFO_KIAD
 + A320_009_KSFO_KIAD + A320_012_KSFO_KIAD + A332_001_KSFO_KIAD
 + A332_004_KSFO_KIAD + A332_007_KSFO_KIAD + A332_010_KSFO_KIAD
 + A332_013_KSFO_KIAD + B738_002_KSFO_KIAD + B738_005_KSFO_KIAD
 + B738_008_KSFO_KIAD + B738_011_KSFO_KIAD + B738_014_KSFO_KIAD = 1
_C29: A320_000_KATL_PANC + A320_003_KATL_PANC + A320_006_KATL_PANC
 + A320_009_KATL_PANC + A320_012_KATL_PANC + A332_001_KATL_PANC
 + A332_004_KATL_PANC + A332_007_KATL_PANC + A332_010_KATL_PANC
 + A332_013_KATL_PANC + B738_002_KATL_PANC + B738_005_KATL_PANC
 + B738_008_KATL_PANC + B738_011_KATL_PANC + B738_014_KATL_PANC = 1
_C3: B738_002_KATL_KBOS + B738_002_KATL_KLAX + B738_002_KATL_KMSP
 + B738_002_KATL_PANC + B738_002_KBOS_KATL + B738_002_KIAD_KSFO
 + B738_002_KIAH_KORD + B738_002_KJFK_KSEA + B738_002_KJFK_LFPG
 + B738_002_KLAX_KATL + B738_002_KMSP_KATL + B738_002_KORD_KIAH
 + B738_002_KSEA_KJFK + B738_002_KSFO_KIAD + B738_002_PANC_KATL <= 1
_C30: A320_000_KJFK_LFPG + A320_003_KJFK_LFPG + A320_006_KJFK_LFPG
 + A320_009_KJFK_LFPG + A320_012_KJFK_LFPG + A332_001_KJFK_LFPG
 + A332_004_KJFK_LFPG + A332_007_KJFK_LFPG + A332_010_KJFK_LFPG
 + A332_013_KJFK_LFPG + B738_002_KJFK_LFPG + B738_005_KJFK_LFPG
 + B738_008_KJFK_LFPG + B738_011_KJFK_LFPG + B738_014_KJFK_LFPG = 1
_C4: A320_003_KATL_KBOS + A320_003_KATL_KLAX + A320_003_KATL_KMSP
 + A320_003_KATL_PANC + A320_003_KBOS_KATL + A320_003_KIAD_KSFO
 + A320_003_KIAH_KORD + A320_003_KJFK_KSEA + A320_003_KJFK_LFPG
 + A320_003_KLAX_KATL + A320_003_KMSP_KATL + A320_003_KORD_KIAH
 + A320_003_KSEA_KJFK + A320_003_KSFO_KIAD + A320_003_PANC_KATL <= 1
_C5: A332_004_KATL_KBOS + A332_004_KATL_KLAX + A332_004_KATL_KMSP
 + A332_004_KATL_PANC + A332_004_KBOS_KATL + A332_004_KIAD_KSFO
 + A332_004_KIAH_KORD + A332_004_KJFK_KSEA + A332_004_KJFK_LFPG
 + A332_004_KLAX_KATL + A332_004_KMSP_KATL + A332_004_KORD_KIAH
 + A332_004_KSEA_KJFK + A332_004_KSFO_KIAD + A332_004_PANC_KATL <= 1
_C6: B738_005_KATL_KBOS + B738_005_KATL_KLAX + B738_005_KATL_KMSP
 + B738_005_KATL_PANC + B738_005_KBOS_KATL + B738_005_KIAD_KSFO
 + B738_005_KIAH_KORD + B738_005_KJFK_KSEA + B738_005_KJFK_LFPG
 + B738_005_KLAX_KATL + B738_005_KMSP_KATL + B738_005_KORD_KIAH
 + B738_005_KSEA_KJFK + B738_005_KSFO_KIAD + B738_005_PANC_KATL <= 1
_C7: A320_006_KATL_KBOS + A320_006_KATL_KLAX + A320_006_KATL_KMSP
 + A320_006_KATL_PANC + A320_006_KBOS_KATL + A320_006_KIAD_KSFO
 + A320_006_KIAH_KORD + A320_006_KJFK_KSEA + A320_006_KJFK_LFPG
 + A320_006_KLAX_KATL + A320_006_KMSP_KATL + A320_006_KORD_KIAH
 + A320_006_KSEA_KJFK + A320_006_KSFO_KIAD + A320_006_PANC_KATL <= 1
_C8: A332_007_KATL_KBOS + A332_007_KATL_KLAX + A332_007_KATL_KMSP
 + A332_007_KATL_PANC + A332_007_KBOS_KATL + A332_007_KIAD_KSFO
 + A332_007_KIAH_KORD + A332_007_KJFK_KSEA + A332_007_KJFK_LFPG
 + A332_007_KLAX_KATL + A332_007_KMSP_KATL + A332_007_KORD_KIAH
 + A332_007_KSEA_KJFK + A332_007_KSFO_KIAD + A332_007_PANC_KATL <= 1
_C9: B738_008_KATL_KBOS + B738_008_KATL_KLAX + B738_008_KATL_KMSP
 + B738_008_KATL_PANC + B738_008_KBOS_KATL + B738_008_KIAD_KSFO
 + B738_008_KIAH_KORD + B738_008_KJFK_KSEA + B738_008_KJFK_LFPG
 + B738_008_KLAX_KATL + B738_008_KMSP_KATL + B738_008_KORD_KIAH
 + B738_008_KSEA_KJFK + B738_008_KSFO_KIAD + B738_008_PANC_KATL <= 1
Binaries
A320_000_KATL_KBOS
A320_000_KATL_KLAX
A320_000_KATL_KMSP
A320_000_KATL_PANC
A320_000_KBOS_KATL
A320_000_KIAD_KSFO
A320_000_KIAH_KORD
A320_000_KJFK_KSEA
A320_000_KJFK_LFPG
A320_000_KLAX_KATL
A320_000_KMSP_KATL
A320_000_KORD_KIAH
A320_000_KSEA_KJFK
A320_000_KSFO_KIAD
A320_000_PANC_KATL
A320_003_KATL_KBOS
A320_003_KATL_KLAX
A320_003_KATL_KMSP
A320_003_KATL_PANC
A320_003_KBOS_KATL
A320_003_KIAD_KSFO
A320_003_KIAH_KORD
A320_003_KJFK_KSEA
A320_003_KJFK_LFPG
A320_003_KLAX_KATL
A320_003_KMSP_KATL
A320_003_KORD_KIAH
A320_003_KSEA_KJFK
A320_003_KSFO_KIAD
A320_003_PANC_KATL
A320_006_KATL_KBOS
A320_006_KATL_KLAX
A320_006_KATL_KMSP
A320_006_KATL_PANC
A320_006_KBOS_KATL
A320_006_KIAD_KSFO
A320_006_KIAH_KORD
A320_006_KJFK_KSEA
A320_006_KJFK_LFPG
A320_006_KLAX_KATL
A320_006_KMSP_KATL
A320_006_KORD_KIAH
A320_006_KSEA_KJFK
A320_006_KSFO_KIAD
A320_006_PANC_KATL
A320_009_KATL_KBOS
A320_009_KATL_KLAX
A320_009_KATL_KMSP
A320_009_KATL_PANC
A320_009_KBOS_KATL
A320_009_KIAD_KSFO
A320_009_KIAH_KORD
A320_009_KJFK_KSEA
A320_009_KJFK_LFPG
A320_009_KLAX_KATL
A320_009_KMSP_KATL
A320_009_KORD_KIAH
A320_009_KSEA_KJFK
A320_009_KSFO_KIAD
A320_009_PANC_KATL
A320_012_KATL_KBOS
A320_012_KATL_KLAX
A320_012_KATL_KMSP
A320_012_KATL_PANC
A320_012_KBOS_KATL
A320_012_KIAD_KSFO
A320_012_KIAH_KORD
A320_012_KJFK_KSEA
A320_012_KJFK_LFPG
A320_012_KLAX_KATL
A320_012_KMSP_KATL
A320_012_KORD_KIAH
A320_012_KSEA_KJFK
A320_012_KSFO_KIAD
A320_012_PANC_KATL
A332_001_KATL_KBOS
A332_001_KATL_KLAX
A332_001_KATL_KMSP
A332_001_KATL_PANC
A332_001_KBOS_KATL
A332_001_KIAD_KSFO
A332_001_KIAH_KORD
A332_001_KJFK_KSEA
A332_001_KJFK_LFPG
A332_001_KLAX_KATL
A332_001_KMSP_KATL
A332_001_KORD_KIAH
A332_001_KSEA_KJFK
A332_001_KSFO_KIAD
A332_001_PANC_KATL
A332_004_KATL_KBOS
A332_004_KATL_KLAX
A332_004_KATL_KMSP
A332_004_KATL_PANC
A332_004_KBOS_KATL
A332_004_KIAD_KSFO
A332_004_KIAH_KORD
A332_004_KJFK_KSEA
A332_004_KJFK_LFPG
A332_004_KLAX_KATL
A332_004_KMSP_KATL
A332_004_KORD_KIAH
A332_004_KSEA_KJFK
A332_004_KSFO_KIAD
A332_004_PANC_KATL
A332_007_KATL_KBOS
A332_007_KATL_KLAX
A332_007_KATL_KMSP
A332_007_KATL_PANC
A332_007_KBOS_KATL
A332_007_KIAD_KSFO
A332_007_KIAH_KORD
A332_007_KJFK_KSEA
A332_007_KJFK_LFPG
A332_007_KLAX_KATL
A332_007_KMSP_KATL
A332_007_KORD_KIAH
A332_007_KSEA_KJFK
A332_007_KSFO_KIAD
A332_007_PANC_KATL
A332_010_KATL_KBOS
A332_010_KATL_KLAX
A332_010_KATL_KMSP
A332_010_KATL_PANC
A332_010_KBOS_KATL
A332_010_KIAD_KSFO
A332_010_KIAH_KORD
A332_010_KJFK_KSEA
A332_010_KJFK_LFPG
A332_010_KLAX_KATL
A332_010_KMSP_KATL
A332_010_KORD_KIAH
A332_010_KSEA_KJFK
A332_010_KSFO_KIAD
A332_010_PANC_KATL
A332_013_KATL_KBOS
A332_013_KATL_KLAX
A332_013_KATL_KMSP
A332_013_KATL_PANC
A332_013_KBOS_KATL
A332_013_KIAD_KSFO
A332_013_KIAH_KORD
A332_013_KJFK_KSEA
A332_013_KJFK_LFPG
A332_013_KLAX_KATL
A332_013_KMSP_KATL
A332_013_KORD_KIAH
A332_013_KSEA_KJFK
A332_013_KSFO_KIAD
A332_013_PANC_KATL
B738_002_KATL_KBOS
B738_002_KATL_KLAX
B738_002_KATL_KMSP
B738_002_KATL_PANC
B738_002_KBOS_KATL
B738_002_KIAD_KSFO
B738_002_KIAH_KORD
B738_002_KJFK_KSEA
B738_002_KJFK_LFPG
B738_002_KLAX_KATL
B738_002_KMSP_KATL
B738_002_KORD_KIAH
B738_002_KSEA_KJFK
B738_002_KSFO_KIAD
B738_002_PANC_KATL
B738_005_KATL_KBOS
B738_005_KATL_KLAX
B738_005_KATL_KMSP
B738_005_KATL_PANC
B738_005_KBOS_KATL
B738_005_KIAD_KSFO
B738_005_KIAH_KORD
B738_005_KJFK_KSEA
B738_005_KJFK_LFPG
B738_005_KLAX_KATL
B738_005_KMSP_KATL
B738_005_KORD_KIAH
B738_005_KSEA_KJFK
B738_005_KSFO_KIAD
B738_005_PANC_KATL
B738_008_KATL_KBOS
B738_008_KATL_KLAX
B738_008_KATL_KMSP
B738_008_KATL_PANC
B738_008_KBOS_KATL
B738_008_KIAD_KSFO
B738_008_KIAH_KORD
B738_008_KJFK_KSEA
B738_008_KJFK_LFPG
B738_008_KLAX_KATL
B738_008_KMSP_KATL
B738_008_KORD_KIAH
B738_008_KSEA_KJFK
B738_008_KSFO_KIAD
B738_008_PANC_KATL
B738_011_KATL_KBOS
B738_011_KATL_KLAX
B738_011_KATL_KMSP
B738_011_KATL_PANC
B738_011_KBOS_KATL
B738_011_KIAD_KSFO
B738_011_KIAH_KORD
B738_011_KJFK_KSEA
B738_011_KJFK_LFPG
B738_011_KLAX_KATL
B738_011_KMSP_KATL
B738_011_KORD_KIAH
B738_011_KSEA_KJFK
B738_011_KSFO_KIAD
B738_011_PANC_KATL
B738_014_KATL_KBOS
B738_014_KATL_KLAX
B738_014_KATL_KMSP
B738_014_KATL_PANC
B738_014_KBOS_KATL
B738_014_KIAD_KSFO
B738_014_KIAH_KORD
B738_014_KJFK_KSEA
B738_014_KJFK_LFPG
B738_014_KLAX_KATL
B738_014_KMSP_KATL
B738_014_KORD_KIAH
B738_014_KSEA_KJFK
B738_014_KSFO_KIAD
B738_014_PANC_KATL
End
